param n := 11;
param m := 44;
param s :=
1 "CCGCAATAATGGCGCTACTCTCACAATAACCCACTAGACAGCCT"
2 "CCCCAATATGGGCGCTACTTTCACAATAACCCACTAGACAGCCT"
3 "CCGCAATATGGGCGCTACCCCCCGGAATCTCCACTAAACAGTCA"
4 "CCGCAATATGGGCGCTGTCCCCCGGAATCTCCACTAAACTACCT"
5 "CCGAGATAAGTCCGAGGTCCCCCGGAATCTCCACTAGCCAGCCT"
6 "CCCCAATATGGGCGCGACCCCCCGGAATCTCTATTCACCAGCTT"
7 "CCCCAATATGGGCGCGACCCCCCGGAATCTGTCTCCGCCAGCCT"
8 "TGCAGATAAGTCGGCGACCCCCCGGAATCTGTCTCCGCGAGCCT"
9 "TGCAGATAAGTCGGCGACCCCCCGGAATCTGTCTCCGCGAGCCT"
10 "TGCAGATAAGTCGGCGACCCCCCGGAATCTGTCTCCGCGAGCCT"
11 "TGCAGGGGAGGGCTCGACCCCACGGGATCTGTCTCCGCCAGCCT";

end;
